Version identifier: 22.1.0.0 | 2022-03-09 | 1a383f8ce
CPXPARAM_Threads                                 1
CPXPARAM_MIP_Strategy_VariableSelect             3
CPXPARAM_TimeLimit                               599.67285724700002
1 of 1 MIP starts provided solutions.
MIP start 'm1' defined initial solution with objective 94.0000.
Tried aggregator 1 time.
MIP Presolve eliminated 20 rows and 0 columns.
Reduced MIP has 999 rows, 2000 columns, and 21680 nonzeros.
Reduced MIP has 2000 binaries, 0 generals, 0 SOSs, and 0 indicators.
Presolve time = 0.02 sec. (12.96 ticks)
Probing time = 0.00 sec. (2.77 ticks)
Tried aggregator 1 time.
Detecting symmetries...
Reduced MIP has 999 rows, 2000 columns, and 21680 nonzeros.
Reduced MIP has 2000 binaries, 0 generals, 0 SOSs, and 0 indicators.
Presolve time = 0.02 sec. (14.67 ticks)
Probing time = 0.00 sec. (2.77 ticks)
Clique table members: 784.
MIP emphasis: balance optimality and feasibility.
MIP search method: dynamic search.
Parallel mode: none, using 1 thread.
Root relaxation solution time = 0.19 sec. (163.03 ticks)

        Nodes                                         Cuts/
   Node  Left     Objective  IInf  Best Integer    Best Bound    ItCnt     Gap

*     0+    0                           94.0000     2000.0000              --- 
      0     0      100.0000   428       94.0000      100.0000     1688    6.38%
      0     0      100.0000   134       94.0000    Cliques: 5     1960    6.38%
      0     0      100.0000   201       94.0000     Cuts: 120     2865    6.38%
      0     0      100.0000   134       94.0000    Cliques: 2     3004    6.38%
*     0+    0                           95.0000      100.0000             5.26%
      0     0        cutoff             95.0000      100.0000     3004    5.26%
      0     0      100.0000   236       95.0000      Cuts: 56     4142    5.26%
Detecting symmetries...
      0     2      100.0000    94       95.0000      100.0000     4142    5.26%
Elapsed time = 5.91 sec. (5486.43 ticks, tree = 0.01 MB, solutions = 2)
      1     3      100.0000   283       95.0000      100.0000     7695    5.26%
      3     5      100.0000   171       95.0000      100.0000     8996    5.26%
      5     7      100.0000   216       95.0000      100.0000     9689    5.26%
      7     9      100.0000   284       95.0000      100.0000    12207    5.26%
      8    10      100.0000   183       95.0000      100.0000    13762    5.26%
     10    12      100.0000   279       95.0000      100.0000    15852    5.26%
     11    13      100.0000   276       95.0000      100.0000    17983    5.26%
     13    15      100.0000   174       95.0000      100.0000    18231    5.26%
     15    17      100.0000   241       95.0000      100.0000    19688    5.26%
     20    22      100.0000   143       95.0000      100.0000    20077    5.26%
Elapsed time = 10.64 sec. (10168.74 ticks, tree = 0.05 MB, solutions = 2)
     26    28      100.0000   180       95.0000      100.0000    24419    5.26%
     32    34      100.0000   315       95.0000      100.0000    27071    5.26%
     39    41      100.0000   262       95.0000      100.0000    29717    5.26%
     46    48      100.0000   223       95.0000      100.0000    31016    5.26%
     53    55      100.0000   220       95.0000      100.0000    32652    5.26%
     62    64      100.0000   201       95.0000      100.0000    35036    5.26%
     72    74      100.0000   183       95.0000      100.0000    37047    5.26%
     80    82      100.0000   196       95.0000      100.0000    38709    5.26%
     89    91      100.0000   220       95.0000      100.0000    41360    5.26%
     98   100      100.0000   208       95.0000      100.0000    43741    5.26%
Elapsed time = 21.06 sec. (20329.32 ticks, tree = 0.69 MB, solutions = 2)
    109   111      100.0000   230       95.0000      100.0000    45592    5.26%
    120   121      100.0000   230       95.0000      100.0000    48149    5.26%
    131   132      100.0000   192       95.0000      100.0000    49826    5.26%
    142   142      100.0000   171       95.0000      100.0000    52174    5.26%
    154   154      100.0000   194       95.0000      100.0000    54743    5.26%
    166   166      100.0000   170       95.0000      100.0000    57171    5.26%
    178   178      100.0000   170       95.0000      100.0000    59900    5.26%
    189   189      100.0000   177       95.0000      100.0000    62171    5.26%
    204   200      100.0000   186       95.0000      100.0000    64777    5.26%
    218   214      100.0000   166       95.0000      100.0000    67928    5.26%
Elapsed time = 31.58 sec. (30447.27 ticks, tree = 1.70 MB, solutions = 2)
    233   229      100.0000   137       95.0000      100.0000    70865    5.26%
    248   244      100.0000   117       95.0000      100.0000    74703    5.26%
    262   257      100.0000   136       95.0000      100.0000    78099    5.26%
    277   272       99.9353   133       95.0000      100.0000    81931    5.26%
    299   287      100.0000   137       95.0000      100.0000    85440    5.26%
    316   300       99.6667   109       95.0000      100.0000    88668    5.26%
    345   314      100.0000   165       95.0000      100.0000    92056    5.26%
    364   331       98.9475   135       95.0000      100.0000    93966    5.26%
    390   347       98.2888   135       95.0000      100.0000    96591    5.26%
    414   364       98.8000    94       95.0000      100.0000    98895    5.26%
Elapsed time = 42.10 sec. (40301.95 ticks, tree = 3.06 MB, solutions = 2)
    448   381       99.8750   113       95.0000      100.0000   100884    5.26%
    468   398       99.5000   104       95.0000      100.0000   103085    5.26%
    493   412       99.7500   122       95.0000      100.0000   107327    5.26%
    514   429       99.0000    83       95.0000      100.0000   110214    5.26%
    537   445       98.4118   127       95.0000      100.0000   112423    5.26%
    560   461       98.3636    97       95.0000      100.0000   115091    5.26%
    599   475       98.4575   129       95.0000      100.0000   117851    5.26%
    620   491       99.2456   121       95.0000      100.0000   121033    5.26%
    640   511       99.0000    73       95.0000      100.0000   123573    5.26%
    664   525      100.0000   132       95.0000      100.0000   126959    5.26%
Elapsed time = 52.55 sec. (50043.35 ticks, tree = 4.52 MB, solutions = 2)
    680   541       99.0274   123       95.0000      100.0000   129987    5.26%
    700   556       99.8568   172       95.0000      100.0000   132721    5.26%
    718   574       99.1250   122       95.0000      100.0000   134780    5.26%
    736   592       98.7917   124       95.0000      100.0000   136512    5.26%
    762   609      100.0000   143       95.0000      100.0000   138226    5.26%
    785   618       99.8557   163       95.0000      100.0000   141024    5.26%
    810   635       96.7172    90       95.0000      100.0000   143633    5.26%
    830   650        cutoff             95.0000      100.0000   147894    5.26%
    855   663       98.3333   107       95.0000      100.0000   151283    5.26%
    877   677      100.0000   142       95.0000      100.0000   153927    5.26%
Elapsed time = 63.13 sec. (59849.33 ticks, tree = 5.89 MB, solutions = 2)
    896   693       98.0255   131       95.0000      100.0000   155938    5.26%
    919   705      100.0000   125       95.0000      100.0000   158019    5.26%
    943   721       98.0000   107       95.0000      100.0000   161219    5.26%
    965   738       98.6006   129       95.0000      100.0000   165294    5.26%
    994   757       99.5484    97       95.0000      100.0000   168967    5.26%
   1001   764       98.6364   100       95.0000      100.0000   169641    5.26%
   1018   778      100.0000   145       95.0000      100.0000   171015    5.26%
*  1020+  756                           96.0000      100.0000             4.17%
   1033   769       99.0000   102       96.0000      100.0000   174891    4.17%
   1062   780      100.0000   161       96.0000      100.0000   177979    4.17%
   1079   792       99.0000    83       96.0000      100.0000   181692    4.17%
Elapsed time = 77.56 sec. (72834.70 ticks, tree = 6.91 MB, solutions = 3)
   1101   806       99.4867   130       96.0000      100.0000   184818    4.17%
   1123   823       98.0800   122       96.0000      100.0000   185977    4.17%

Performing restart 1

Repeating presolve.
Tried aggregator 1 time.
Reduced MIP has 999 rows, 2000 columns, and 21680 nonzeros.
Reduced MIP has 2000 binaries, 0 generals, 0 SOSs, and 0 indicators.
Presolve time = 0.01 sec. (12.61 ticks)
Tried aggregator 1 time.
Reduced MIP has 999 rows, 2000 columns, and 21680 nonzeros.
Reduced MIP has 2000 binaries, 0 generals, 0 SOSs, and 0 indicators.
Presolve time = 0.02 sec. (14.99 ticks)
Represolve time = 0.14 sec. (87.29 ticks)
   1130     0      100.0000   209       96.0000    Cliques: 6   188926    4.17%
   1130     0      100.0000   347       96.0000     Cuts: 130   190430    4.17%
   1130     0      100.0000   237       96.0000    Cliques: 6   191319    4.17%
   1130     0      100.0000   125       96.0000    Cliques: 1   191473    4.17%
   1130     0      100.0000   188       96.0000      Cuts: 53   192326    4.17%
   1130     0      100.0000   120       96.0000    Cliques: 1   192432    4.17%
   1130     0      100.0000   149       96.0000      Cuts: 13   192796    4.17%
   1130     0      100.0000   189       96.0000   ZeroHalf: 1   193294    4.17%
   1130     2      100.0000    92       96.0000      100.0000   193294    4.17%
   1133     5      100.0000   118       96.0000      100.0000   199722    4.17%
   1139    11      100.0000   188       96.0000      100.0000   203562    4.17%
   1147    19      100.0000   148       96.0000      100.0000   207322    4.17%
   1155    27      100.0000   193       96.0000      100.0000   212866    4.17%
   1162    34      100.0000   210       96.0000      100.0000   216962    4.17%
   1170    42      100.0000   254       96.0000      100.0000   221319    4.17%
   1180    52      100.0000   217       96.0000      100.0000   224439    4.17%
Elapsed time = 102.60 sec. (97341.99 ticks, tree = 0.39 MB, solutions = 3)
   1189    61      100.0000   261       96.0000      100.0000   228793    4.17%
   1197    69      100.0000   353       96.0000      100.0000   232246    4.17%
   1200    72      100.0000   298       96.0000      100.0000   233502    4.17%
   1210    82      100.0000   259       96.0000      100.0000   235674    4.17%
   1220    92      100.0000   311       96.0000      100.0000   239881    4.17%
   1230   102      100.0000   294       96.0000      100.0000   243407    4.17%
   1241   113      100.0000   274       96.0000      100.0000   245544    4.17%
   1254   126      100.0000   229       96.0000      100.0000   248513    4.17%
   1270   142       99.6421   118       96.0000      100.0000   254877    4.17%
   1299   158       98.0000    62       96.0000      100.0000   263883    4.17%
Elapsed time = 113.95 sec. (108093.13 ticks, tree = 1.33 MB, solutions = 3)
   1330   169       99.8000    95       96.0000      100.0000   271441    4.17%
*  1359   174      integral     0       97.0000      100.0000   276493    3.09%
   1364   178       99.2771    91       97.0000      100.0000   278518    3.09%
   1394   196      100.0000    88       97.0000      100.0000   283988    3.09%
*  1408   133      integral     0       99.0000      100.0000   288997    1.01%
   1422   130      100.0000   134       99.0000      100.0000   292133    1.01%
   1453   132      100.0000   111       99.0000      100.0000   296473    1.01%
   1476   133      100.0000   292       99.0000      100.0000   302497    1.01%
   1487   144      100.0000   350       99.0000      100.0000   304798    1.01%
   1498   155      100.0000   305       99.0000      100.0000   305601    1.01%
   1510   167      100.0000   236       99.0000      100.0000   308114    1.01%
   1566   191      100.0000   271       99.0000      100.0000   324277    1.01%
Elapsed time = 127.48 sec. (120804.97 ticks, tree = 1.63 MB, solutions = 5)
   1600   224      100.0000   288       99.0000      100.0000   329340    1.01%
   1646   266      100.0000   221       99.0000      100.0000   339466    1.01%
   1688   308      100.0000   218       99.0000      100.0000   354263    1.01%
   1732   352      100.0000   213       99.0000      100.0000   364604    1.01%
   1777   397      100.0000   225       99.0000      100.0000   374161    1.01%
   1861   437      100.0000   130       99.0000      100.0000   387346    1.01%
   1918   470      100.0000   197       99.0000      100.0000   402002    1.01%
   1963   515      100.0000   216       99.0000      100.0000   411199    1.01%
   2015   567      100.0000   227       99.0000      100.0000   420974    1.01%
   2061   607      100.0000   273       99.0000      100.0000   433401    1.01%
Elapsed time = 167.29 sec. (159172.01 ticks, tree = 5.39 MB, solutions = 5)
   2115   640      100.0000   359       99.0000      100.0000   447040    1.01%
   2155   680      100.0000   312       99.0000      100.0000   451223    1.01%
   2210   721      100.0000   259       99.0000      100.0000   460400    1.01%
   2254   760      100.0000   146       99.0000      100.0000   474251    1.01%
   2288   794      100.0000   266       99.0000      100.0000   488457    1.01%
   2335   840      100.0000   171       99.0000      100.0000   495454    1.01%
   2385   872      100.0000   295       99.0000      100.0000   508317    1.01%
   2431   916      100.0000   276       99.0000      100.0000   513272    1.01%
   2485   958      100.0000   263       99.0000      100.0000   524806    1.01%
   2530   992      100.0000   314       99.0000      100.0000   536160    1.01%
Elapsed time = 206.98 sec. (197780.06 ticks, tree = 8.87 MB, solutions = 5)
   2580  1032      100.0000   184       99.0000      100.0000   546463    1.01%
   2627  1070      100.0000   205       99.0000      100.0000   561513    1.01%
   2668  1111      100.0000   217       99.0000      100.0000   574114    1.01%
   2713  1156      100.0000   214       99.0000      100.0000   583296    1.01%
   2764  1207      100.0000   192       99.0000      100.0000   591251    1.01%
   2811  1240      100.0000   248       99.0000      100.0000   608203    1.01%
   2858  1283      100.0000   296       99.0000      100.0000   617973    1.01%
   2905  1320      100.0000   340       99.0000      100.0000   628894    1.01%
   2945  1358      100.0000   275       99.0000      100.0000   637511    1.01%
   2970  1375      100.0000   212       99.0000      100.0000   651360    1.01%
Elapsed time = 247.06 sec. (236546.63 ticks, tree = 12.40 MB, solutions = 5)
   3008  1413      100.0000   246       99.0000      100.0000   662533    1.01%
   3055  1460      100.0000   226       99.0000      100.0000   670218    1.01%
   3109  1513      100.0000   169       99.0000      100.0000   680894    1.01%
   3187  1535      100.0000   170       99.0000      100.0000   697240    1.01%
   3226  1574      100.0000   297       99.0000      100.0000   713051    1.01%
   3270  1618      100.0000   238       99.0000      100.0000   726003    1.01%
   3316  1664      100.0000   217       99.0000      100.0000   735758    1.01%
   3367  1705      100.0000   285       99.0000      100.0000   746327    1.01%
   3418  1743      100.0000   306       99.0000      100.0000   756955    1.01%
   3466  1781      100.0000   194       99.0000      100.0000   771018    1.01%
Elapsed time = 287.02 sec. (275067.53 ticks, tree = 16.10 MB, solutions = 5)
   3511  1826      100.0000   257       99.0000      100.0000   783459    1.01%
   3565  1872      100.0000   218       99.0000      100.0000   794739    1.01%
   3610  1911      100.0000   172       99.0000      100.0000   811097    1.01%
   3647  1938      100.0000   317       99.0000      100.0000   830148    1.01%
   3700  1975      100.0000   297       99.0000      100.0000   842836    1.01%
   3753  2020      100.0000   310       99.0000      100.0000   854137    1.01%
   3800  2057      100.0000   240       99.0000      100.0000   865586    1.01%
   3841  2098      100.0000   216       99.0000      100.0000   876634    1.01%
   3889  2146      100.0000   257       99.0000      100.0000   887676    1.01%
   3942  2199      100.0000   158       99.0000      100.0000   896822    1.01%
Elapsed time = 327.03 sec. (313746.98 ticks, tree = 20.04 MB, solutions = 5)
   4023  2223      100.0000   191       99.0000      100.0000   917533    1.01%
   4101  2249      100.0000   239       99.0000      100.0000   935491    1.01%
   4165  2295      100.0000   162       99.0000      100.0000   945245    1.01%
   4211  2335      100.0000   278       99.0000      100.0000   953850    1.01%
   4263  2376      100.0000   274       99.0000      100.0000   964965    1.01%
   4323  2406      100.0000   318       99.0000      100.0000   980021    1.01%
   4383  2444      100.0000   202       99.0000      100.0000   991201    1.01%
   4434  2487      100.0000   278       99.0000      100.0000   999044    1.01%
   4487  2532      100.0000   214       99.0000      100.0000  1012084    1.01%
   4533  2568      100.0000   269       99.0000      100.0000  1027238    1.01%
Elapsed time = 367.43 sec. (352358.10 ticks, tree = 23.47 MB, solutions = 5)
   4585  2620      100.0000   295       99.0000      100.0000  1028198    1.01%
   4629  2664      100.0000   365       99.0000      100.0000  1029652    1.01%
   4673  2708      100.0000   326       99.0000      100.0000  1031709    1.01%
   4724  2759      100.0000   324       99.0000      100.0000  1033357    1.01%
   4779  2797    infeasible             99.0000      100.0000  1040345    1.01%
   4905  2807      100.0000   123       99.0000      100.0000  1057379    1.01%
   5036  2808      100.0000   137       99.0000      100.0000  1075170    1.01%
   5156  2818      100.0000   110       99.0000      100.0000  1092441    1.01%
   5276  2822      100.0000   110       99.0000      100.0000  1109938    1.01%
   5410  2813      100.0000   126       99.0000      100.0000  1129290    1.01%
Elapsed time = 407.39 sec. (390794.01 ticks, tree = 25.75 MB, solutions = 5)
   5517  2815      100.0000   346       99.0000      100.0000  1145427    1.01%
   5561  2857      100.0000   190       99.0000      100.0000  1152358    1.01%
   5627  2899      100.0000   213       99.0000      100.0000  1162963    1.01%
   5683  2947      100.0000   221       99.0000      100.0000  1171162    1.01%
   5737  2991      100.0000   275       99.0000      100.0000  1181743    1.01%
   5793  3043      100.0000   206       99.0000      100.0000  1189455    1.01%
   5842  3088      100.0000   169       99.0000      100.0000  1202451    1.01%
   5917  3126      100.0000   152       99.0000      100.0000  1219469    1.01%
   6008  3137      100.0000   218       99.0000      100.0000  1241770    1.01%
   6059  3188      100.0000   253       99.0000      100.0000  1250690    1.01%
Elapsed time = 447.25 sec. (429189.49 ticks, tree = 29.27 MB, solutions = 5)
   6124  3222      100.0000   266       99.0000      100.0000  1267230    1.01%
   6130  3228      100.0000   279       99.0000      100.0000  1268108    1.01%
   6191  3272      100.0000   228       99.0000      100.0000  1276958    1.01%
   6251  3317      100.0000   269       99.0000      100.0000  1286601    1.01%
   6319  3354      100.0000   152       99.0000      100.0000  1300284    1.01%
   6406  3378    infeasible             99.0000      100.0000  1317388    1.01%
   6508  3379      100.0000   134       99.0000      100.0000  1342755    1.01%
   6610  3384      100.0000   179       99.0000      100.0000  1365788    1.01%
   6719  3396      100.0000   177       99.0000      100.0000  1385821    1.01%
   6803  3413      100.0000   138       99.0000      100.0000  1404363    1.01%
Elapsed time = 490.30 sec. (469789.28 ticks, tree = 31.39 MB, solutions = 5)
   6877  3416      100.0000   313       99.0000      100.0000  1427969    1.01%
   6930  3468      100.0000   187       99.0000      100.0000  1433994    1.01%
   6988  3510      100.0000   163       99.0000      100.0000  1443827    1.01%
   7034  3546      100.0000   220       99.0000      100.0000  1458249    1.01%
   7080  3592      100.0000   221       99.0000      100.0000  1468407    1.01%
   7140  3632      100.0000   301       99.0000      100.0000  1485796    1.01%
   7186  3673    infeasible             99.0000      100.0000  1500286    1.01%
   7241  3724      100.0000   233       99.0000      100.0000  1507714    1.01%
   7296  3773      100.0000   156       99.0000      100.0000  1515315    1.01%
   7378  3787    infeasible             99.0000      100.0000  1542647    1.01%
Elapsed time = 530.72 sec. (508465.07 ticks, tree = 34.97 MB, solutions = 5)
   7470  3799      100.0000    99       99.0000      100.0000  1567196    1.01%
   7538  3825      100.0000   234       99.0000      100.0000  1585468    1.01%
   7595  3864      100.0000   216       99.0000      100.0000  1596413    1.01%
Starting limited solution polishing.
   7649  3914      100.0000   190       99.0000      100.0000  1603375    1.01%
   7700  3957      100.0000   268       99.0000      100.0000  1614879    1.01%
   7759  4002      100.0000   232       99.0000      100.0000  1625091    1.01%
   7815  4048      100.0000   157       99.0000      100.0000  1635713    1.01%
   7862  4095      100.0000   211       99.0000      100.0000  1648842    1.01%
   7917  4150      100.0000   159       99.0000      100.0000  1659204    1.01%
*  7988     1      integral     0      100.0000      100.0000  1668962    0.00%

Clique cuts applied:  104
Zero-half cuts applied:  4

Root node processing (before b&c):
  Real time             =    5.90 sec. (5477.14 ticks)
Sequential b&c:
  Real time             =  564.49 sec. (540945.09 ticks)
                          ------------
Total (root+branch&cut) =  570.39 sec. (546422.23 ticks)
Primal:	100
Dual:	100
Status:	Optimal
Time:	570.32
Sequence:
	15
	3
	11
	15
	14
	0
	16
	12
	11
	4
	19
	0
	16
	8
	19
	0
	4
	11
	12
	16
	6
	2
	17
	11
	1
	3
	7
	15
	11
	14
	1
	0
	8
	16
	12
	6
	5
	13
	2
	10
	9
	8
	7
	1
	3
	11
	1
	17
	6
	11
	2
	16
	0
	12
	16
	8
	19
	5
	3
	13
	19
	5
	3
	12
	10
	18
	9
	19
	4
	7
	9
	2
	10
	17
	8
	1
	9
	14
	12
	16
	18
	11
	15
	3
	7
	19
	14
	9
	15
	18
	13
	9
	2
	10
	17
	19
	4
	9
	19
	4
